row=8;
Board=[|-1,-1,-1,9,5,6,7,4,-1,0|-1,7,-1,6,-1,9,-1,0,8,3|-1,-1,3,-1,1,4,-1,9,-1,-1|4,6,9,7,3,8,1,2,0,5|-1,7,-1,1,0,5,-1,-1,-1,4|2,1,-1,-1,3,9,6,5,0,7|-1,6,3,-1,0,5,8,-1,-1,4|-1,2,-1,-1,-1,-1,9,4,-1,6|];
bottom=[35,37,28,51,22,47,45,33,31,31]